
#Inicialização

variable T equal 300

units real
atom_style molecular
boundary f f f 
pair_style lj/cut 14

bond_style harmonic
angle_style harmonic
dihedral_style opls
improper_style harmonic

special_bonds lj 0.0 0.0 0.5

read_data cnt_molecular.data

#Parâmetros da simulação

include in.parm.lmp

#Recentralizando o CNT

group carbon_atoms type 1
variable carbon_xcm equal -1*xcm(carbon_atoms,x)
variable carbon_ycm equal -1*xcm(carbon_atoms,y)
variable carbon_zcm equal -1*xcm(carbon_atoms,z)
displace_atoms carbon_atoms move ${carbon_xcm} ${carbon_ycm} ${carbon_zcm}

#Recentralizando a caixa

change_box all x final -40 40 y final -40 40 z final -40 40

variable zmax equal bound(carbon_atoms,zmax)-0.5
variable zmin equal bound(carbon_atoms,zmin)+0.5
region rtop block INF INF INF INF ${zmax} INF
region rbot block INF INF INF INF INF ${zmin}
region rmid block INF INF INF INF ${zmin} ${zmax}

group carbon_top region rtop
group carbon_bot region rbot
group carbon_mid region rmid

#Termalização e dinâmica do sistema

velocity carbon_mid create ${T} 48455 mom yes rot yes
fix mynve all nve
compute Tmid carbon_mid temp
fix myber carbon_mid temp/berendsen ${T} ${T} 100
fix_modify myber temp Tmid

#Restrigindo o movimento dos átomos da borda

fix mysf1 carbon_top setforce 0 0 0
fix mysf2 carbon_bot setforce 0 0 0
velocity carbon_top set 0 0 0
velocity carbon_bot set 0 0 0

#Salvando os dados

variable L equal xcm(carbon_top,z)-xcm(carbon_bot,z)
fix at2 all ave/time 10 10 100 v_L file length.dat
fix at3 all ave/time 10 10 100 f_mysf1[3] f_mysf2[3] file force.dat

#Salvando as coordenadas

dump mydmp all atom 10 dump.lammpstrj

#Equilibrando

thermo 100
thermo_modify temp Tmid

timestep 1.0
run 5000

#Deformando o CNT

velocity carbon_top set NULL NULL 0.0005
velocity carbon_bot set NULL NULL -0.0005
run 10000
